NAME: berlin52-24-3
TYPE: TSP
COMMENT: min_cost = 5078.75
DIMENSION: 24
EDGE_WEIGHT_TYPE: EUC_2D
NODE_COORD_SECTION
1 95 260
2 25 230
3 605 625
4 720 635
5 795 645
6 300 465
7 700 580
8 1340 725
9 945 685
10 880 660
11 1465 200
12 145 665
13 1320 315
14 510 875
15 835 625
16 415 635
17 975 580
18 875 920
19 845 680
20 595 360
21 1215 245
22 1740 245
23 520 585
24 575 665
EOF
